Bi4 Se4 I4                              
   1.00000000000000     
     4.1902889927758178   -0.0000000000000006    0.0000000000000003
     0.0000000000000026    8.5498590711665727    0.0000000000000005
    -0.0000000000000001    0.0000000000000000   10.3400533212427543
Bi Se I
4  4  4
Direct
  0.7500000000000000  0.1367459515242161  0.8706748863285084
  0.2500000000000000  0.8632540484757554  0.1293251136715272
  0.7500000000000000  0.6367459515242446  0.6293251136714916
  0.2500000000000000  0.3632540484757412  0.3706748863284302
  0.2500000000000000  0.1711868276029454  0.0545231622214913
  0.7500000000000000  0.3288131723970830  0.5545231622215127
  0.2500000000000000  0.6711868276028530  0.4454768377785088
  0.7500000000000000  0.8288131723971470  0.9454768377784873
  0.2500000000000000  0.4849706773499027  0.8298247810953761
  0.7500000000000000  0.0150293226500973  0.3298247810953903
  0.2500000000000000  0.9849706773498460  0.6701752189046239
  0.7500000000000000  0.5150293226501540  0.1701752189046168
 
  0.00000000E+00  0.00000000E+00  0.00000000E+00
  0.00000000E+00  0.00000000E+00  0.00000000E+00
  0.00000000E+00  0.00000000E+00  0.00000000E+00
  0.00000000E+00  0.00000000E+00  0.00000000E+00
  0.00000000E+00  0.00000000E+00  0.00000000E+00
  0.00000000E+00  0.00000000E+00  0.00000000E+00
  0.00000000E+00  0.00000000E+00  0.00000000E+00
  0.00000000E+00  0.00000000E+00  0.00000000E+00
  0.00000000E+00  0.00000000E+00  0.00000000E+00
  0.00000000E+00  0.00000000E+00  0.00000000E+00
  0.00000000E+00  0.00000000E+00  0.00000000E+00
  0.00000000E+00  0.00000000E+00  0.00000000E+00
