Bi16 S16 Br16
1.0
   3.4920545305902055    2.0161386232611069    0.0000000000000011
  -4.7588633303453998    8.2425930744346694   -8.0562451119937855
   0.0000000000000000    0.0000000000000000   64.4499608959502552
Bi Br S
16 16 16
direct
   0.7500000000000002    0.5928568540439569    0.0196850156760131 Bi
   0.7500000000000004    0.8564810619153105    0.2400474700002587 Bi
   0.2500000000000001    0.3498856890734049    0.2022249450639836 Bi
   0.7500000000000002    0.5956063120299305    0.1435421113907441 Bi
   0.7500000000000002    0.6210266544406006    0.2723038047213010 Bi
   0.2500000000000001    0.1469306041183460    0.3668431093247697 Bi
   0.7500000000000002    0.6331796679773002    0.3984830282398120 Bi
   0.2500000000000001    0.1236036933704077    0.2375002693854341 Bi
   0.2500000000000000    0.4871439204406007    0.4606312928720969 Bi
   0.2500000000000000   -0.0913637941667244    0.5397465938572522 Bi
   0.7500000000000002    0.8815795277026098    0.3691556982168824 Bi
   0.2500000000000001    0.3659573943007439    0.3285841568503848 Bi
   0.2500000000000001    0.1011398715072899    0.1099306765854924 Bi
   0.7500000000000000    0.8334533533162958    0.1121282311111528 Bi
   0.2500000000000001    0.3227821505732056    0.0755722056029051 Bi
   0.7500000000000002    0.8969124219049194    0.5002947882856064 Bi
   0.7500000000000001    0.1782998471620146    0.3256183829242666 Br
   0.7500000000000002    0.3301006690576099    0.2831951821481554 Br
   0.2500000000000001    0.8247829415120582    0.2795697631761726 Br
   0.7500000000000001    0.3349557487590564    0.4658836171592919 Br
   0.2500000000000002    0.7024649014856897    0.4512513169545750 Br
   0.2500000000000001    0.6916577298650097    0.3252035580170868 Br
   0.7500000000000001    0.3685190465676257    0.4128129726256528 Br
   0.2500000000000002    0.7980712088826909    0.1502649498809397 Br
   0.2500000000000003    0.6657938904066356    0.1968804997127096 Br
   0.7500000000000000    0.1211721737937210    0.0666344730396598 Br
   0.2500000000000002    0.6417962379691446    0.0687490717372190 Br
   0.7500000000000000    0.3053779818678510    0.1562253944726531 Br
   0.2500000000000002    0.7710941924907392    0.0206438320555361 Br
   0.7500000000000001    0.2773554788667614    0.0139958522187719 Br
   0.2500000000000002    0.8461790010736748    0.4089454748045416 Br
   0.7500000000000002    0.1596144510602919    0.1986129921152314 Br
   0.2500000000000001    0.4172862970657845   -0.0077579557170128 S
   0.7500000000000002    0.9146359285486150    0.0830969679517873 S
   0.7500000000000002    0.6735013085005161    0.4966764983792319 S
   0.2500000000000001    0.0750286893111337    0.3970549965429719 S
   0.7500000000000001    0.0879521004649083    0.5561789696900128 S
   0.2500000000000001    0.4473921359494281    0.3783333975551808 S
   0.2500000000000000    0.2097962305001314    0.0189708264870910 S
   0.2500000000000000    0.0496008452976135    0.2673168658602219 S
   0.7500000000000002    0.5436310391198347    0.2240019574304780 S
   0.2500000000000000    0.0261905007146037    0.1394969976314378 S
   0.2500000000000003    0.4339449353646156    0.2523351446506141 S
   0.2500000000000001    0.4135349536072314    0.1269774194703735 S
   0.7500000000000004    0.9359189073673373    0.2108149521481691 S
   0.7500000000000001    0.5616729491940650    0.3508582813988123 S
   0.7500000000000002    0.9625351992425173    0.3401365018961751 S
   0.7500000000000002    0.5129670963828966    0.0942390307115470 S
