Bi4 S4 I4                               
   1.00000000000000     
     4.1439767700584866   -0.0000000000000069    0.0000000000000003
    -0.0000000000000062    8.3420000701402284    0.0000000000000004
     0.0000000000000000    0.0000000000000000   10.0236114131810368
Bi S  I
4  4  4
Direct
  0.2500000000000000  0.3585100267397378  0.3770817327639773
  0.7500000000000000  0.6414899732602409  0.6229182672358734
  0.2500000000000000  0.8585100267397591  0.1229182672360155
  0.7500000000000000  0.1414899732602055  0.8770817327641266
  0.7500000000000000  0.3386559237673117  0.5541042584560086
  0.2500000000000000  0.1613440762327095  0.0541042584560939
  0.7500000000000000  0.8386559237672689  0.9458957415439914
  0.2500000000000000  0.6613440762327311  0.4458957415439204
  0.2500000000000000  0.4928060110850924  0.8322190694829971
  0.7500000000000000  0.0071939889149361  0.3322190694830254
  0.2500000000000000  0.9928060110851704  0.6677809305170029
  0.7500000000000000  0.5071939889148296  0.1677809305168894
 
  0.00000000E+00  0.00000000E+00  0.00000000E+00
  0.00000000E+00  0.00000000E+00  0.00000000E+00
  0.00000000E+00  0.00000000E+00  0.00000000E+00
  0.00000000E+00  0.00000000E+00  0.00000000E+00
  0.00000000E+00  0.00000000E+00  0.00000000E+00
  0.00000000E+00  0.00000000E+00  0.00000000E+00
  0.00000000E+00  0.00000000E+00  0.00000000E+00
  0.00000000E+00  0.00000000E+00  0.00000000E+00
  0.00000000E+00  0.00000000E+00  0.00000000E+00
  0.00000000E+00  0.00000000E+00  0.00000000E+00
  0.00000000E+00  0.00000000E+00  0.00000000E+00
  0.00000000E+00  0.00000000E+00  0.00000000E+00
