Ce20 O40
1.0
   5.4442259873497649    0.0000000000000000    0.0000000000000003
  -0.0000000000000008   13.6105649683744119   -2.7172777851568362
   0.0000000000000000    0.0000000000000000   21.7382222812546892
Ce O
20 40
direct
   0.0000000000000000    0.3999999999999999    0.8125000000000000 Ce
   0.0000000000000000    0.7999999999999998    0.8625000000000000 Ce
   0.0000000000000000    0.2000000000000000    0.9125000000000000 Ce
   0.0000000000000000    0.5999999999999999    0.9625000000000000 Ce
   0.0000000000000000    0.9999999999999999    0.7625000000000000 Ce
   0.5000000000000000    0.3999999999999999    0.9375000000000000 Ce
   0.5000000000000000    0.7999999999999998    0.9875000000000000 Ce
   0.5000000000000000    0.2000000000000000    0.7875000000000000 Ce
   0.5000000000000000    0.5999999999999999    0.8375000000000000 Ce
   0.5000000000000000    0.9999999999999999    0.8875000000000000 Ce
   0.0000000000000000    0.3999999999999999    0.5625000000000000 Ce
   0.0000000000000000    0.7999999999999998    0.6125000000000000 Ce
   0.0000000000000000    0.2000000000000000    0.6625000000000000 Ce
   0.0000000000000000    0.5999999999999999    0.7125000000000000 Ce
   0.0000000000000000    0.9999999999999999    0.5125000000000000 Ce
   0.5000000000000000    0.3999999999999999    0.6875000000000000 Ce
   0.5000000000000000    0.7999999999999998    0.7375000000000000 Ce
   0.5000000000000000    0.2000000000000000    0.5375000000000000 Ce
   0.5000000000000000    0.5999999999999999    0.5875000000000000 Ce
   0.5000000000000000    0.9999999999999999    0.6375000000000000 Ce
   0.7500000000000001    0.4999999999999998    0.8875000000000000 O
   0.7500000000000001    0.8999999999999999    0.9375000000000000 O
   0.7500000000000001    0.2999999999999999    0.9875000000000000 O
   0.7500000000000001    0.6999999999999998    0.7875000000000000 O
   0.7500000000000001    0.0999999999999999    0.8375000000000000 O
   0.7500000000000001    0.6999999999999998    0.9125000000000000 O
   0.7500000000000001    0.0999999999999999    0.9625000000000000 O
   0.7500000000000001    0.4999999999999998    0.7625000000000000 O
   0.7500000000000001    0.8999999999999999    0.8125000000000000 O
   0.7500000000000001    0.2999999999999999    0.8625000000000000 O
   0.2499999999999999    0.4999999999999998    0.8875000000000000 O
   0.2499999999999999    0.8999999999999999    0.9375000000000000 O
   0.2499999999999999    0.2999999999999999    0.9875000000000000 O
   0.2499999999999999    0.6999999999999998    0.7875000000000000 O
   0.2499999999999999    0.0999999999999999    0.8375000000000000 O
   0.2499999999999999    0.6999999999999998    0.9125000000000000 O
   0.2499999999999999    0.0999999999999999    0.9625000000000000 O
   0.2499999999999999    0.4999999999999998    0.7625000000000000 O
   0.2499999999999999    0.8999999999999999    0.8125000000000000 O
   0.2499999999999999    0.2999999999999999    0.8625000000000000 O
   0.7500000000000001    0.4999999999999998    0.6375000000000000 O
   0.7500000000000001    0.8999999999999999    0.6875000000000000 O
   0.7500000000000001    0.2999999999999999    0.7375000000000000 O
   0.7500000000000001    0.6999999999999998    0.5374999999999999 O
   0.7500000000000001    0.0999999999999999    0.5875000000000000 O
   0.7500000000000001    0.6999999999999998    0.6625000000000000 O
   0.7500000000000001    0.0999999999999999    0.7124999999999999 O
   0.7500000000000001    0.4999999999999998    0.5124999999999998 O
   0.7500000000000001    0.8999999999999999    0.5625000000000000 O
   0.7500000000000001    0.2999999999999999    0.6125000000000000 O
   0.2499999999999999    0.4999999999999998    0.6375000000000000 O
   0.2499999999999999    0.8999999999999999    0.6875000000000000 O
   0.2499999999999999    0.2999999999999999    0.7375000000000000 O
   0.2499999999999999    0.6999999999999998    0.5374999999999999 O
   0.2499999999999999    0.0999999999999999    0.5875000000000000 O
   0.2499999999999999    0.6999999999999998    0.6625000000000000 O
   0.2499999999999999    0.0999999999999999    0.7124999999999999 O
   0.2499999999999999    0.4999999999999998    0.5124999999999998 O
   0.2499999999999999    0.8999999999999999    0.5625000000000000 O
   0.2499999999999999    0.2999999999999999    0.6125000000000000 O
