Sb8 S12                                 
   1.00000000000000     
     3.8154538560700764   -0.0000000000000000    0.0000000000000002
     0.0000000000000017   10.8177654125796732    0.0000000000000006
     0.0000000000000000   -0.0000000000000000   11.0328650764519782
Sb S
8  12
Direct
  0.7500000000000000  0.4663796224989100  0.8432422422326514
  0.2500000000000000  0.5336203775010899  0.1567577577673484
  0.2500000000000000  0.9663796224989101  0.6567577577673486
  0.7500000000000000  0.0336203775010901  0.3432422422326516
  0.2500000000000000  0.1742278941811472  0.9812353730812122
  0.7500000000000000  0.8257721058188526  0.0187646269187877
  0.7500000000000000  0.6742278941811474  0.5187646269187878
  0.2500000000000000  0.3257721058188528  0.4812353730812123
  0.7500000000000000  0.0583514393609727  0.8747299619351664
  0.2500000000000000  0.9416485606390274  0.1252700380648337
  0.2500000000000000  0.5583514393609726  0.6252700380648336
  0.7500000000000000  0.4416485606390274  0.3747299619351664
  0.7500000000000000  0.3725296538880459  0.0507544861803749
  0.2500000000000000  0.6274703461119540  0.9492455138196252
  0.2500000000000000  0.8725296538880460  0.4492455138196251
  0.7500000000000000  0.1274703461119540  0.5507544861803748
  0.2500000000000000  0.1942854262627008  0.2875466257176508
  0.7500000000000000  0.8057145737372992  0.7124533742823422
  0.7500000000000000  0.6942854262627008  0.2124533742823492
  0.2500000000000000  0.3057145737372992  0.7875466257176578
 
  0.00000000E+00  0.00000000E+00  0.00000000E+00
  0.00000000E+00  0.00000000E+00  0.00000000E+00
  0.00000000E+00  0.00000000E+00  0.00000000E+00
  0.00000000E+00  0.00000000E+00  0.00000000E+00
  0.00000000E+00  0.00000000E+00  0.00000000E+00
  0.00000000E+00  0.00000000E+00  0.00000000E+00
  0.00000000E+00  0.00000000E+00  0.00000000E+00
  0.00000000E+00  0.00000000E+00  0.00000000E+00
  0.00000000E+00  0.00000000E+00  0.00000000E+00
  0.00000000E+00  0.00000000E+00  0.00000000E+00
  0.00000000E+00  0.00000000E+00  0.00000000E+00
  0.00000000E+00  0.00000000E+00  0.00000000E+00
  0.00000000E+00  0.00000000E+00  0.00000000E+00
  0.00000000E+00  0.00000000E+00  0.00000000E+00
  0.00000000E+00  0.00000000E+00  0.00000000E+00
  0.00000000E+00  0.00000000E+00  0.00000000E+00
  0.00000000E+00  0.00000000E+00  0.00000000E+00
  0.00000000E+00  0.00000000E+00  0.00000000E+00
  0.00000000E+00  0.00000000E+00  0.00000000E+00
  0.00000000E+00  0.00000000E+00  0.00000000E+00
