Ce63 O126
1.0
   3.8427636432468439    0.0000000000000000    0.0000000000000002
  -1.9213818216234211    6.3661185558660947   -0.2976007753899285
   0.0000000000000000    0.0000000000000000   49.2302204616502692
Ce O Ce O
15 30 48 96
direct
   0.8083333333333337    0.6166666666666669    0.9041666666666667 Ce
   0.4749999999999999    0.9500000000000001    0.5708333333333333 Ce
   0.0083333333333334    0.0166666666666668    0.5041666666666667 Ce
   0.9416666666666668    0.8833333333333339    0.6375000000000001 Ce
   0.6750000000000003    0.3500000000000005    0.6708333333333334 Ce
   0.2083333333333337    0.4166666666666671    0.6041666666666667 Ce
   0.1416666666666668    0.2833333333333335    0.7374999999999999 Ce
   0.7416666666666669    0.4833333333333336    0.5375000000000000 Ce
   0.4083333333333336    0.8166666666666670    0.7041666666666667 Ce
   0.3416666666666670    0.6833333333333338    0.8375000000000000 Ce
   0.0750000000000002    0.1500000000000002    0.8708333333333335 Ce
   0.6083333333333335    0.2166666666666669    0.8041666666666668 Ce
   0.5416666666666670    0.0833333333333335    0.9375000000000001 Ce
   0.2750000000000001    0.5500000000000000    0.9708333333333333 Ce
   0.8750000000000000    0.7500000000000001    0.7708333333333334 Ce
   0.5916666666666668    0.1833333333333338    0.7125000000000000 O
   0.0583333333333336    0.1166666666666669    0.7791666666666667 O
   0.4916666666666668    0.9833333333333335    0.6625000000000000 O
   0.7583333333333335    0.5166666666666668    0.6291666666666667 O
   0.2250000000000003    0.4500000000000002    0.6958333333333334 O
   0.1250000000000004    0.2500000000000004    0.6458333333333333 O
   0.2916666666666667    0.5833333333333337    0.5625000000000000 O
   0.8583333333333335    0.7166666666666669    0.6791666666666667 O
   0.5583333333333337    0.1166666666666671    0.5291666666666666 O
   0.0250000000000003    0.0500000000000003    0.5958333333333332 O
   0.9250000000000000    0.8499999999999999    0.5458333333333332 O
   0.3250000000000004    0.6500000000000002    0.7458333333333335 O
   0.3916666666666668    0.7833333333333337    0.6125000000000000 O
   0.4250000000000004    0.8500000000000004    0.7958333333333334 O
   0.1583333333333334    0.3166666666666668    0.8291666666666667 O
   0.6916666666666668    0.3833333333333335    0.7625000000000001 O
   0.2583333333333335    0.5166666666666667    0.8791666666666668 O
   0.7916666666666667    0.5833333333333335    0.8125000000000001 O
   0.5250000000000004    0.0500000000000001    0.8458333333333333 O
   0.6250000000000003    0.2500000000000002    0.8958333333333334 O
   0.1916666666666664    0.3833333333333332    0.5124999999999998 O
   0.8916666666666668    0.7833333333333335    0.8625000000000002 O
   0.4583333333333335    0.9166666666666667    0.9791666666666666 O
   0.9916666666666667    0.9833333333333335    0.9125000000000000 O
   0.7250000000000004    0.4500000000000003    0.9458333333333334 O
   0.8250000000000004    0.6500000000000000    0.9958333333333335 O
   0.3583333333333337    0.7166666666666668    0.9291666666666668 O
   0.0916666666666667    0.1833333333333335    0.9625000000000000 O
   0.9583333333333335    0.9166666666666667    0.7291666666666665 O
   0.6583333333333332    0.3166666666666664    0.5791666666666665 O
   0.0312499999999987    0.2682291666666665    0.7880087050163951 Ce
   0.0312499999999990    0.0598958333333334    0.0796753716830665 Ce
   0.0312499999999984    0.3307291666666667    0.1005087050163951 Ce
   0.5312499999999979    0.3828124999999999    0.0275920383497308 Ce
   0.5312499999999978    0.6536458333333331    0.0484253716830665 Ce
   0.5312499999999973    0.9244791666666667    0.0692587050163951 Ce
   0.5312500000000000    0.1953125000000000    0.0900920383497308 Ce
   0.0312499999999978    0.6015625000000000    0.1213420383497308 Ce
   0.0312499999999996    0.8723958333333333    0.1421753716830665 Ce
   0.0312499999999989    0.1432291666666667    0.1630087050163951 Ce
   0.0312499999999984    0.4140625000000001    0.1838420383497308 Ce
   0.5312499999999987    0.4661458333333330    0.1109253716830665 Ce
   0.5312499999999978    0.7369791666666665    0.1317587050163951 Ce
   0.5312499999999982    0.0078125000000001    0.1525920383497308 Ce
   0.5312499999999987    0.2786458333333334    0.1734253716830665 Ce
   0.0312499999999960    0.6848958333333333    0.2046753716830665 Ce
   0.0312499999999969    0.9557291666666670    0.2255087050163951 Ce
   0.0312499999999990    0.2265625000000001    0.2463420383497308 Ce
   0.0312499999999964    0.4973958333333335    0.2671753716830665 Ce
   0.5312499999999980    0.5494791666666666    0.1942587050163951 Ce
   0.5312499999999978    0.8203125000000000    0.2150920383497308 Ce
   0.5312499999999972    0.0911458333333335    0.2359253716830665 Ce
   0.0312499999999978    0.7890625000000002    0.0588420383497308 Ce
   0.0312499999999976    0.5182291666666665    0.0380087050163951 Ce
   0.5312499999999989    0.3619791666666667    0.2567587050163951 Ce
   0.5312499999999982    0.8411458333333335    0.9859253716830665 Ce
   0.0312499999999993    0.5390625000000001    0.8088420383497308 Ce
   0.0312499999999987    0.8098958333333333    0.8296753716830665 Ce
   0.0312499999999997    0.0807291666666667    0.8505087050163951 Ce
   0.5312499999999986    0.1328124999999998    0.7775920383497308 Ce
   0.5312499999999989    0.4036458333333333    0.7984253716830665 Ce
   0.5312499999999987    0.6744791666666667    0.8192587050163951 Ce
   0.5312499999999992    0.1119791666666667    0.0067587050163951 Ce
   0.0312499999999982    0.3515624999999999    0.8713420383497308 Ce
   0.0312499999999984    0.6223958333333333    0.8921753716830665 Ce
   0.0312499999999987    0.8932291666666667    0.9130087050163951 Ce
   0.5312499999999991    0.9453125000000000    0.8400920383497308 Ce
   0.5312499999999980    0.2161458333333331    0.8609253716830665 Ce
   0.0312499999999993    0.1640625000000000    0.9338420383497308 Ce
   0.5312499999999980    0.2994791666666665    0.9442587050163951 Ce
   0.0312499999999992    0.2473958333333333    0.0171753716830665 Ce
   0.0312499999999991    0.9765625000000000    0.9963420383497308 Ce
   0.5312499999999984    0.5703125000000001    0.9650920383497308 Ce
   0.0312499999999976    0.4348958333333334    0.9546753716830665 Ce
   0.5312499999999999    0.0286458333333333    0.9234253716830665 Ce
   0.5312499999999982    0.7578125000000002    0.9025920383497308 Ce
   0.5312499999999984    0.4869791666666666    0.8817587050163951 Ce
   0.0312499999999982    0.7057291666666669    0.9755087050163951 Ce
   0.5312499999999984    0.5546875000000001    0.1369670383497308 O
   0.0312499999999987    0.3255208333333335    0.1578003716830665 O
   0.0312499999999982    0.0546875000000002    0.1369670383497308 O
   0.0312499999999982    0.7838541666666667    0.1161337050163951 O
   0.0312499999999976    0.5963541666666669    0.1786337050163951 O
   0.5312499999999992    0.1067708333333334    0.0640503716830665 O
   0.5312499999999973    0.8359375000000000    0.0432170383497308 O
   0.5312499999999980    0.5651041666666667    0.0223837050163951 O
   0.5312499999999979    0.3776041666666665    0.0848837050163951 O
   0.0312499999999982    0.7005208333333335    0.0328003716830665 O
   0.0312499999999978    0.8776041666666667    0.0848837050163951 O
   0.0312499999999978    0.6067708333333333    0.0640503716830665 O
   0.0312499999999978    0.3359374999999999    0.0432170383497308 O
   0.5312499999999990    0.2005208333333335    0.0328003716830665 O
   0.5312499999999992    0.0130208333333335    0.0953003716830665 O
   0.5312499999999978    0.7421875000000002    0.0744670383497308 O
   0.5312499999999987    0.4713541666666666    0.0536337050163951 O
   0.0312499999999989    0.2421875000000001    0.0744670383497308 O
   0.0312499999999969    0.9713541666666670    0.0536337050163951 O
   0.5312499999999987    0.8255208333333334    0.1578003716830665 O
   0.0312499999999990    0.0651041666666668    0.0223837050163951 O
   0.5312499999999991    0.0963541666666668    0.1786337050163951 O
   0.0312499999999981    0.1380208333333335    0.2203003716830665 O
   0.0312499999999976    0.4192708333333334    0.1265503716830665 O
   0.0312499999999987    0.5130208333333333    0.0953003716830665 O
   0.5312499999999973    0.7317708333333335    0.1890503716830665 O
   0.5312499999999958    0.5442708333333334    0.2515503716830665 O
   0.0312499999999977    0.2317708333333335    0.1890503716830665 O
   0.0312499999999973    0.0442708333333335    0.2515503716830665 O
   0.0312499999999978    0.7734375000000002    0.2307170383497308 O
   0.0312499999999978    0.5026041666666667    0.2098837050163951 O
   0.5312499999999979    0.3671875000000001    0.1994670383497308 O
   0.5312499999999971    0.1796875000000002    0.2619670383497308 O
   0.5312499999999973    0.9088541666666670    0.2411337050163951 O
   0.5312499999999978    0.6380208333333335    0.2203003716830665 O
   0.0312499999999980    0.4088541666666668    0.2411337050163951 O
   0.0312499999999973    0.8671875000000002    0.1994670383497308 O
   0.0312499999999956    0.6796875000000002    0.2619670383497308 O
   0.5312499999999989    0.1901041666666668    0.1473837050163951 O
   0.5312499999999987    0.9192708333333333    0.1265503716830665 O
   0.5312499999999982    0.6484374999999999    0.1057170383497308 O
   0.5312499999999978    0.4609374999999999    0.1682170383497308 O
   0.0312499999999989    0.1484375000000001    0.1057170383497308 O
   0.0312499999999973    0.9609374999999999    0.1682170383497308 O
   0.0312499999999982    0.6901041666666667    0.1473837050163951 O
   0.5312499999999988    0.2838541666666667    0.1161337050163951 O
   0.5312499999999991    0.0234375000000001    0.9807170383497308 O
   0.5312500000000000    0.0338541666666667    0.8661337050163951 O
   0.5312499999999993    0.4817708333333333    0.9390503716830665 O
   0.0312499999999999    0.0755208333333334    0.9078003716830665 O
   0.0312499999999978    0.8046875000000002    0.8869670383497308 O
   0.0312499999999987    0.5338541666666667    0.8661337050163951 O
   0.0312499999999996    0.3463541666666666    0.9286337050163951 O
   0.5312499999999987    0.8567708333333335    0.8140503716830665 O
   0.5312499999999984    0.5859375000000000    0.7932170383497308 O
   0.5312499999999997    0.3151041666666665    0.7723837050163951 O
   0.5312499999999991    0.1276041666666665    0.8348837050163951 O
   0.0312499999999991    0.8151041666666669    0.7723837050163951 O
   0.5312499999999988    0.3046875000000001    0.8869670383497308 O
   0.0312499999999987    0.6276041666666667    0.8348837050163951 O
   0.0312499999999990    0.0859374999999999    0.7932170383497308 O
   0.5312499999999982    0.9505208333333335    0.7828003716830665 O
   0.5312499999999991    0.7630208333333336    0.8453003716830665 O
   0.5312499999999993    0.4921875000000001    0.8244670383497308 O
   0.5312499999999991    0.2213541666666666    0.8036337050163951 O
   0.0312499999999987    0.9921875000000000    0.8244670383497308 O
   0.0312499999999991    0.7213541666666670    0.8036337050163951 O
   0.0312499999999989    0.4505208333333334    0.7828003716830665 O
   0.0312499999999991    0.2630208333333334    0.8453003716830665 O
   0.0312499999999993    0.3567708333333333    0.8140503716830665 O
   0.5312499999999982    0.5755208333333335    0.9078003716830665 O
   0.5312499999999978    0.8463541666666669    0.9286337050163951 O
   0.5312499999999982    0.0026041666666667    0.2098837050163951 O
   0.5312499999999980    0.2942708333333333    0.0015503716830665 O
   0.0312499999999987    0.9817708333333335    0.9390503716830665 O
   0.0312499999999987    0.7942708333333333    0.0015503716830665 O
   0.0312499999999987    0.5234375000000000    0.9807170383497308 O
   0.0312499999999980    0.2526041666666665    0.9598837050163951 O
   0.5312499999999994    0.1171875000000001    0.9494670383497308 O
   0.5312499999999987    0.9296875000000003    0.0119670383497308 O
   0.5312499999999984    0.6588541666666667    0.9911337050163951 O
   0.5312499999999987    0.3880208333333332    0.9703003716830665 O
   0.0312499999999989    0.1588541666666668    0.9911337050163951 O
   0.0312499999999987    0.8880208333333337    0.9703003716830665 O
   0.0312499999999984    0.6171875000000000    0.9494670383497308 O
   0.0312499999999987    0.4296875000000001    0.0119670383497308 O
   0.5312499999999987    0.9401041666666669    0.8973837050163951 O
   0.5312499999999987    0.6692708333333334    0.8765503716830665 O
   0.5312499999999991    0.3984374999999999    0.8557170383497308 O
   0.5312499999999981    0.2109374999999999    0.9182170383497308 O
   0.0312499999999991    0.8984375000000001    0.8557170383497308 O
   0.0312499999999982    0.7109374999999999    0.9182170383497308 O
   0.0312499999999989    0.4401041666666666    0.8973837050163951 O
   0.0312499999999989    0.1692708333333332    0.8765503716830665 O
   0.5312499999999987    0.7526041666666667    0.9598837050163951 O
   0.5312499999999990    0.2734375000000001    0.2307170383497308 O
