Ce63 O126
1.0
   3.8427636432468439    0.0000000000000000    0.0000000000000002
  -1.9213818216234211    6.3661185558660947   -0.2976007753899285
   0.0000000000000000    0.0000000000000000   49.2302204616502692
Ce O Ce O
15 30 48 96
direct
   0.8083333333333337    0.6166666666666669    0.9041666666666667 Ce
   0.4749999999999999    0.9500000000000001    0.5708333333333333 Ce
   0.0083333333333334    0.0166666666666668    0.5041666666666667 Ce
   0.9416666666666668    0.8833333333333339    0.6375000000000001 Ce
   0.6750000000000003    0.3500000000000005    0.6708333333333334 Ce
   0.2083333333333337    0.4166666666666671    0.6041666666666667 Ce
   0.1416666666666668    0.2833333333333335    0.7374999999999999 Ce
   0.7416666666666669    0.4833333333333336    0.5375000000000000 Ce
   0.4083333333333336    0.8166666666666670    0.7041666666666667 Ce
   0.3416666666666670    0.6833333333333338    0.8375000000000000 Ce
   0.0750000000000002    0.1500000000000002    0.8708333333333335 Ce
   0.6083333333333335    0.2166666666666669    0.8041666666666668 Ce
   0.5416666666666670    0.0833333333333335    0.9375000000000001 Ce
   0.2750000000000001    0.5500000000000000    0.9708333333333333 Ce
   0.8750000000000000    0.7500000000000001    0.7708333333333334 Ce
   0.5916666666666668    0.1833333333333338    0.7125000000000000 O
   0.0583333333333336    0.1166666666666669    0.7791666666666667 O
   0.4916666666666668    0.9833333333333335    0.6625000000000000 O
   0.7583333333333335    0.5166666666666668    0.6291666666666667 O
   0.2250000000000003    0.4500000000000002    0.6958333333333334 O
   0.1250000000000004    0.2500000000000004    0.6458333333333333 O
   0.2916666666666667    0.5833333333333337    0.5625000000000000 O
   0.8583333333333335    0.7166666666666669    0.6791666666666667 O
   0.5583333333333337    0.1166666666666671    0.5291666666666666 O
   0.0250000000000003    0.0500000000000003    0.5958333333333332 O
   0.9250000000000000    0.8499999999999999    0.5458333333333332 O
   0.3250000000000004    0.6500000000000002    0.7458333333333335 O
   0.3916666666666668    0.7833333333333337    0.6125000000000000 O
   0.4250000000000004    0.8500000000000004    0.7958333333333334 O
   0.1583333333333334    0.3166666666666668    0.8291666666666667 O
   0.6916666666666668    0.3833333333333335    0.7625000000000001 O
   0.2583333333333335    0.5166666666666667    0.8791666666666668 O
   0.7916666666666667    0.5833333333333335    0.8125000000000001 O
   0.5250000000000004    0.0500000000000001    0.8458333333333333 O
   0.6250000000000003    0.2500000000000002    0.8958333333333334 O
   0.1916666666666664    0.3833333333333332    0.5124999999999998 O
   0.8916666666666668    0.7833333333333335    0.8625000000000002 O
   0.4583333333333335    0.9166666666666667    0.9791666666666666 O
   0.9916666666666667    0.9833333333333335    0.9125000000000000 O
   0.7250000000000004    0.4500000000000003    0.9458333333333334 O
   0.8250000000000004    0.6500000000000000    0.9958333333333335 O
   0.3583333333333337    0.7166666666666668    0.9291666666666668 O
   0.0916666666666667    0.1833333333333335    0.9625000000000000 O
   0.9583333333333335    0.9166666666666667    0.7291666666666665 O
   0.6583333333333332    0.3166666666666664    0.5791666666666665 O
   0.0312499999999987    0.2682291666666665    0.0182291666666643 Ce
   0.0312499999999990    0.0598958333333334    0.3098958333333357 Ce
   0.0312499999999984    0.3307291666666667    0.3307291666666643 Ce
   0.5312499999999979    0.3828124999999999    0.2578125000000000 Ce
   0.5312499999999978    0.6536458333333331    0.2786458333333357 Ce
   0.5312499999999973    0.9244791666666667    0.2994791666666643 Ce
   0.5312500000000000    0.1953125000000000    0.3203125000000000 Ce
   0.0312499999999978    0.6015625000000000    0.3515625000000000 Ce
   0.0312499999999996    0.8723958333333333    0.3723958333333357 Ce
   0.0312499999999989    0.1432291666666667    0.3932291666666643 Ce
   0.0312499999999984    0.4140625000000001    0.4140625000000000 Ce
   0.5312499999999987    0.4661458333333330    0.3411458333333357 Ce
   0.5312499999999978    0.7369791666666665    0.3619791666666643 Ce
   0.5312499999999982    0.0078125000000001    0.3828125000000000 Ce
   0.5312499999999987    0.2786458333333334    0.4036458333333357 Ce
   0.0312499999999960    0.6848958333333333    0.4348958333333357 Ce
   0.0312499999999969    0.9557291666666670    0.4557291666666643 Ce
   0.0312499999999990    0.2265625000000001    0.4765625000000000 Ce
   0.0312499999999964    0.4973958333333335    0.4973958333333357 Ce
   0.5312499999999980    0.5494791666666666    0.4244791666666643 Ce
   0.5312499999999978    0.8203125000000000    0.4453125000000000 Ce
   0.5312499999999972    0.0911458333333335    0.4661458333333357 Ce
   0.0312499999999978    0.7890625000000002    0.2890625000000000 Ce
   0.0312499999999976    0.5182291666666665    0.2682291666666643 Ce
   0.5312499999999989    0.3619791666666667    0.4869791666666643 Ce
   0.5312499999999982    0.8411458333333335    0.2161458333333357 Ce
   0.0312499999999993    0.5390625000000001    0.0390625000000000 Ce
   0.0312499999999987    0.8098958333333333    0.0598958333333357 Ce
   0.0312499999999997    0.0807291666666667    0.0807291666666643 Ce
   0.5312499999999986    0.1328124999999998    0.0078125000000000 Ce
   0.5312499999999989    0.4036458333333333    0.0286458333333357 Ce
   0.5312499999999987    0.6744791666666667    0.0494791666666643 Ce
   0.5312499999999992    0.1119791666666667    0.2369791666666643 Ce
   0.0312499999999982    0.3515624999999999    0.1015625000000000 Ce
   0.0312499999999984    0.6223958333333333    0.1223958333333357 Ce
   0.0312499999999987    0.8932291666666667    0.1432291666666643 Ce
   0.5312499999999991    0.9453125000000000    0.0703125000000000 Ce
   0.5312499999999980    0.2161458333333331    0.0911458333333357 Ce
   0.0312499999999993    0.1640625000000000    0.1640625000000000 Ce
   0.5312499999999980    0.2994791666666665    0.1744791666666643 Ce
   0.0312499999999992    0.2473958333333333    0.2473958333333357 Ce
   0.0312499999999991    0.9765625000000000    0.2265625000000000 Ce
   0.5312499999999984    0.5703125000000001    0.1953125000000000 Ce
   0.0312499999999976    0.4348958333333334    0.1848958333333357 Ce
   0.5312499999999999    0.0286458333333333    0.1536458333333357 Ce
   0.5312499999999982    0.7578125000000002    0.1328125000000000 Ce
   0.5312499999999984    0.4869791666666666    0.1119791666666643 Ce
   0.0312499999999982    0.7057291666666669    0.2057291666666643 Ce
   0.5312499999999984    0.5546875000000001    0.3671875000000000 O
   0.0312499999999987    0.3255208333333335    0.3880208333333357 O
   0.0312499999999982    0.0546875000000002    0.3671875000000000 O
   0.0312499999999982    0.7838541666666667    0.3463541666666643 O
   0.0312499999999976    0.5963541666666669    0.4088541666666643 O
   0.5312499999999992    0.1067708333333334    0.2942708333333357 O
   0.5312499999999973    0.8359375000000000    0.2734375000000000 O
   0.5312499999999980    0.5651041666666667    0.2526041666666643 O
   0.5312499999999979    0.3776041666666665    0.3151041666666643 O
   0.0312499999999982    0.7005208333333335    0.2630208333333357 O
   0.0312499999999978    0.8776041666666667    0.3151041666666643 O
   0.0312499999999978    0.6067708333333333    0.2942708333333357 O
   0.0312499999999978    0.3359374999999999    0.2734375000000000 O
   0.5312499999999990    0.2005208333333335    0.2630208333333357 O
   0.5312499999999992    0.0130208333333335    0.3255208333333357 O
   0.5312499999999978    0.7421875000000002    0.3046875000000000 O
   0.5312499999999987    0.4713541666666666    0.2838541666666643 O
   0.0312499999999989    0.2421875000000001    0.3046875000000000 O
   0.0312499999999969    0.9713541666666670    0.2838541666666643 O
   0.5312499999999987    0.8255208333333334    0.3880208333333357 O
   0.0312499999999990    0.0651041666666668    0.2526041666666643 O
   0.5312499999999991    0.0963541666666668    0.4088541666666643 O
   0.0312499999999981    0.1380208333333335    0.4505208333333357 O
   0.0312499999999976    0.4192708333333334    0.3567708333333357 O
   0.0312499999999987    0.5130208333333333    0.3255208333333357 O
   0.5312499999999973    0.7317708333333335    0.4192708333333357 O
   0.5312499999999958    0.5442708333333334    0.4817708333333357 O
   0.0312499999999977    0.2317708333333335    0.4192708333333357 O
   0.0312499999999973    0.0442708333333335    0.4817708333333357 O
   0.0312499999999978    0.7734375000000002    0.4609375000000000 O
   0.0312499999999978    0.5026041666666667    0.4401041666666643 O
   0.5312499999999979    0.3671875000000001    0.4296875000000000 O
   0.5312499999999971    0.1796875000000002    0.4921875000000000 O
   0.5312499999999973    0.9088541666666670    0.4713541666666643 O
   0.5312499999999978    0.6380208333333335    0.4505208333333357 O
   0.0312499999999980    0.4088541666666668    0.4713541666666643 O
   0.0312499999999973    0.8671875000000002    0.4296875000000000 O
   0.0312499999999956    0.6796875000000002    0.4921875000000000 O
   0.5312499999999989    0.1901041666666668    0.3776041666666643 O
   0.5312499999999987    0.9192708333333333    0.3567708333333357 O
   0.5312499999999982    0.6484374999999999    0.3359375000000000 O
   0.5312499999999978    0.4609374999999999    0.3984375000000000 O
   0.0312499999999989    0.1484375000000001    0.3359375000000000 O
   0.0312499999999973    0.9609374999999999    0.3984375000000000 O
   0.0312499999999982    0.6901041666666667    0.3776041666666643 O
   0.5312499999999988    0.2838541666666667    0.3463541666666643 O
   0.5312499999999991    0.0234375000000001    0.2109375000000000 O
   0.5312500000000000    0.0338541666666667    0.0963541666666643 O
   0.5312499999999993    0.4817708333333333    0.1692708333333357 O
   0.0312499999999999    0.0755208333333334    0.1380208333333357 O
   0.0312499999999978    0.8046875000000002    0.1171875000000000 O
   0.0312499999999987    0.5338541666666667    0.0963541666666643 O
   0.0312499999999996    0.3463541666666666    0.1588541666666643 O
   0.5312499999999987    0.8567708333333335    0.0442708333333357 O
   0.5312499999999984    0.5859375000000000    0.0234375000000000 O
   0.5312499999999997    0.3151041666666665    0.0026041666666643 O
   0.5312499999999991    0.1276041666666665    0.0651041666666643 O
   0.0312499999999991    0.8151041666666669    0.0026041666666643 O
   0.5312499999999988    0.3046875000000001    0.1171875000000000 O
   0.0312499999999987    0.6276041666666667    0.0651041666666643 O
   0.0312499999999990    0.0859374999999999    0.0234375000000000 O
   0.5312499999999982    0.9505208333333335    0.0130208333333357 O
   0.5312499999999991    0.7630208333333336    0.0755208333333357 O
   0.5312499999999993    0.4921875000000001    0.0546875000000000 O
   0.5312499999999991    0.2213541666666666    0.0338541666666643 O
   0.0312499999999987    0.9921875000000000    0.0546875000000000 O
   0.0312499999999991    0.7213541666666670    0.0338541666666643 O
   0.0312499999999989    0.4505208333333334    0.0130208333333357 O
   0.0312499999999991    0.2630208333333334    0.0755208333333357 O
   0.0312499999999993    0.3567708333333333    0.0442708333333357 O
   0.5312499999999982    0.5755208333333335    0.1380208333333357 O
   0.5312499999999978    0.8463541666666669    0.1588541666666643 O
   0.5312499999999982    0.0026041666666667    0.4401041666666643 O
   0.5312499999999980    0.2942708333333333    0.2317708333333357 O
   0.0312499999999987    0.9817708333333335    0.1692708333333357 O
   0.0312499999999987    0.7942708333333333    0.2317708333333357 O
   0.0312499999999987    0.5234375000000000    0.2109375000000000 O
   0.0312499999999980    0.2526041666666665    0.1901041666666643 O
   0.5312499999999994    0.1171875000000001    0.1796875000000000 O
   0.5312499999999987    0.9296875000000003    0.2421875000000000 O
   0.5312499999999984    0.6588541666666667    0.2213541666666643 O
   0.5312499999999987    0.3880208333333332    0.2005208333333357 O
   0.0312499999999989    0.1588541666666668    0.2213541666666643 O
   0.0312499999999987    0.8880208333333337    0.2005208333333357 O
   0.0312499999999984    0.6171875000000000    0.1796875000000000 O
   0.0312499999999987    0.4296875000000001    0.2421875000000000 O
   0.5312499999999987    0.9401041666666669    0.1276041666666643 O
   0.5312499999999987    0.6692708333333334    0.1067708333333357 O
   0.5312499999999991    0.3984374999999999    0.0859375000000000 O
   0.5312499999999981    0.2109374999999999    0.1484375000000000 O
   0.0312499999999991    0.8984375000000001    0.0859375000000000 O
   0.0312499999999982    0.7109374999999999    0.1484375000000000 O
   0.0312499999999989    0.4401041666666666    0.1276041666666643 O
   0.0312499999999989    0.1692708333333332    0.1067708333333357 O
   0.5312499999999987    0.7526041666666667    0.1901041666666643 O
   0.5312499999999990    0.2734375000000001    0.4609375000000000 O
